logging:
Cal Parameter: OK
initial master model!!
initial sub model!
the ToD used now : 422.0
big Pi is 425.0
CPXPARAM_TimeLimit                               300
CPXPARAM_MIP_Tolerances_MIPGap                   0.81000000000000005
Tried aggregator 2 times.
MIP Presolve eliminated 142657 rows and 138284 columns.
MIP Presolve modified 56725 coefficients.
Aggregator did 6 substitutions.
Reduced MIP has 9847 rows, 93251 columns, and 964628 nonzeros.
Reduced MIP has 93251 binaries, 0 generals, 0 SOSs, and 0 indicators.
Presolve time = 2.14 sec. (1106.84 ticks)
Found incumbent of value 0.000000 after 3.73 sec. (1960.11 ticks)
Tried aggregator 1 time.
Reduced MIP has 9847 rows, 93251 columns, and 964628 nonzeros.
Reduced MIP has 93251 binaries, 0 generals, 0 SOSs, and 0 indicators.
Presolve time = 0.98 sec. (566.73 ticks)
Probing fixed 64 vars, tightened 0 bounds.
Probing time = 3.31 sec. (1272.60 ticks)
Clique table members: 476082.
MIP emphasis: balance optimality and feasibility.
MIP search method: dynamic search.
Parallel mode: deterministic, using up to 4 threads.
Root relaxation solution time = 4.19 sec. (3064.65 ticks)

        Nodes                                         Cuts/
   Node  Left     Objective  IInf  Best Integer    Best Bound    ItCnt     Gap

*     0+    0                            0.0000    21108.0000              --- 
